Maximize
	+ 5 x1 + 6 x2 - 4 x3 - 2 x4 
Maximize
	+ 1 x3 - 4 x4 + 3 x5 
Maximize
	+ 6 x2 + 1 x3 - 1 x4 + 1 x5 
Subject To
	+ 6 x1 + 4 x2 + 2 x3 + 4 x4 <= 2
	- 1 x1 - 2 x3 - 4 x4 <= 6
	- 3 x1 + 4 x2 - 4 x3 + 4 x4 <= 8
	+ 6 x1 + 3 x2 + 2 x3 + 6 x4 - 3 x5 <= 3
	+ 5 x4 - 3 x5 <= 3
Bounds
	0 <= x1 <= 4
	0 <= x2 <= 4
	0 <= x3 <= 4
	0 <= x4 <= 4
	0 <= x5 <= 4
Integers
	x1 x2 x3 x4 x5 
End